logic-magister/smt-solver-kp2pml30/WCNF/sbox_4.wcnf
c Standarized MaxSat Instance
c{
c "sha1sum": "e7f4b6fd9060293223df7febad6e70621131b3f7",
c "nvars": 147,
c "ncls": 387,
c "total_lits": 2731,
c "nhards": 240,
c "nhard_nlits": 2584,
c "nhard_len_stats":
c    { "min": 2,
c      "max": 21,
c      "ave": 10.7667,
c      "stddev": 3.7422 },
c "nsofts": 147,
c "nsoft_nlits": 147,
c "nsoft_len_stats":
c    { "min": 1,
c      "max": 1,
c      "ave": 1.0000,
c      "stddev": 0.0000 },
c "nsoft_wts": 1,
c "soft_wt_stats":
c    { "min": 1,
c      "max": 1,
c      "ave": 1.0000,
c      "stddev": 0.0000 }
c}
c------------------------------------------------------------
c Subsumption hypergraph for the minimisation problem for AES_sbox_2_4_full.cnf
h 1 3 16 17 37 82 93 102 105 0
h 1 3 16 17 37 119 120 121 123 131 138 140 141 143 0
h 1 3 16 17 63 65 71 82 93 112 0
h 1 3 16 17 63 65 71 119 120 121 123 131 145 146 147 0
h 1 3 24 27 28 31 37 54 55 57 82 97 98 102 0
h 1 3 24 27 28 31 37 54 55 57 119 120 121 123 133 138 140 141 0
h 1 3 24 27 28 31 63 65 73 82 97 98 112 0
h 1 3 24 27 28 31 63 65 73 119 120 121 123 133 145 146 0
h 1 16 17 37 40 48 49 79 82 90 93 105 107 0
h 1 16 17 37 40 48 49 121 138 139 141 143 0
h 1 16 17 63 79 82 90 93 110 112 0
h 1 16 17 63 121 0
h 1 24 37 40 79 82 97 0
h 1 24 37 40 121 133 138 139 141 0
h 1 24 63 73 74 79 82 97 110 112 114 0
h 1 24 63 73 74 121 133 0
h 2 4 11 14 15 19 41 42 43 47 81 89 92 106 0
h 2 4 11 14 15 19 41 42 43 47 116 123 129 130 137 0
h 2 4 11 14 15 19 62 64 68 69 70 71 81 89 92 111 0
h 2 4 11 14 15 19 62 64 68 69 70 71 116 123 129 130 144 147 0
h 2 4 29 41 42 43 56 57 81 0
h 2 4 29 41 42 43 56 57 116 123 135 137 0
h 2 4 29 62 64 81 111 0
h 2 4 29 62 64 116 123 135 144 0
h 2 11 39 41 42 47 81 89 91 101 106 107 0
h 2 11 39 41 42 47 116 137 0
h 2 11 64 68 81 89 91 0
h 2 11 64 68 116 144 0
h 2 29 30 39 41 42 53 56 81 99 101 0
h 2 29 30 39 41 42 53 56 116 134 135 137 0
h 2 29 30 64 75 81 99 114 0
h 2 29 30 64 75 116 134 135 144 0
h 3 4 15 19 43 77 80 81 88 89 92 93 106 0
h 3 4 15 19 43 123 130 0
h 3 4 15 19 59 60 62 63 64 68 70 71 77 80 81 88 89 92 93 111 0
h 3 4 15 19 59 60 62 63 64 68 70 71 123 130 144 145 147 0
h 3 4 17 18 59 63 65 68 71 81 82 93 109 111 112 0
h 3 4 17 18 59 63 65 68 71 119 123 128 130 131 145 147 0
h 3 4 17 18 81 82 93 0
h 3 4 17 18 119 123 128 130 131 140 143 0
h 3 4 28 31 55 57 81 82 96 97 98 0
h 3 4 28 31 55 57 119 123 140 0
h 3 4 28 31 59 63 65 73 81 82 96 97 98 109 111 112 0
h 3 4 28 31 59 63 65 73 119 123 145 0
h 3 4 29 43 57 77 80 81 96 98 0
h 3 4 29 43 57 123 135 0
h 3 4 29 59 60 62 63 64 73 77 80 81 96 98 111 0
h 3 4 29 59 60 62 63 64 73 123 135 144 145 0
h 3 16 19 43 50 80 88 92 93 102 103 105 106 0
h 3 16 19 43 50 121 122 123 141 0
h 3 16 19 60 63 70 71 80 88 92 93 0
h 3 16 19 60 63 70 71 121 122 123 144 145 146 147 0
h 3 27 43 54 57 80 98 102 103 0
h 3 27 43 54 57 121 122 123 133 135 141 0
h 3 27 60 63 73 80 98 0
h 3 27 60 63 73 121 122 123 133 135 144 145 146 0
h 4 11 18 36 41 76 81 0
h 4 11 18 36 41 123 128 129 130 131 137 140 143 0
h 4 11 18 65 68 69 71 76 81 108 109 111 112 0
h 4 11 18 65 68 69 71 123 128 129 130 131 147 0
h 4 31 36 41 52 55 56 57 76 81 97 0
h 4 31 36 41 52 55 56 57 123 137 140 0
h 4 31 65 76 81 97 108 109 111 112 0
h 4 31 65 123 0
h 5 7 20 39 40 44 45 46 48 49 79 83 87 95 104 107 0
h 5 7 20 39 40 44 45 46 48 49 125 137 138 139 142 143 0
h 5 7 20 79 83 87 95 108 0
h 5 7 20 125 0
h 5 7 24 25 32 35 39 40 44 45 46 51 52 58 79 83 87 97 104 0
h 5 7 24 25 32 35 39 40 44 45 46 51 52 58 125 133 136 137 138 139 142 0
h 5 7 24 25 32 35 74 79 83 87 97 108 0
h 5 7 24 25 32 35 74 125 133 136 0
h 5 10 20 23 38 39 46 47 48 85 87 94 95 104 106 107 0
h 5 10 20 23 38 39 46 47 48 116 117 125 127 137 139 0
h 5 10 20 23 66 72 85 87 94 95 0
h 5 10 20 23 66 72 116 117 125 127 144 0
h 5 10 25 32 38 39 46 51 85 87 104 0
h 5 10 25 32 38 39 46 51 116 117 125 127 133 134 136 137 139 0
h 5 10 25 32 66 74 85 87 0
h 5 10 25 32 66 74 116 117 125 127 133 134 136 144 0
h 5 14 20 38 47 85 92 94 103 104 106 0
h 5 14 20 38 47 116 118 129 137 0
h 5 14 20 66 67 69 70 72 85 92 94 113 0
h 5 14 20 66 67 69 70 72 116 118 129 144 146 147 0
h 5 20 44 45 83 104 0
h 5 20 44 45 118 120 129 131 137 138 140 142 143 0
h 5 20 61 69 83 108 113 0
h 5 20 61 69 118 120 129 131 146 147 0
h 5 24 32 44 45 51 52 54 55 58 83 97 104 0
h 5 24 32 44 45 51 52 54 55 58 118 120 133 137 138 140 142 0
h 5 24 32 61 83 97 108 113 115 0
h 5 24 32 61 118 120 133 146 0
h 5 32 38 51 54 85 103 104 0
h 5 32 38 51 54 116 118 133 137 0
h 5 32 66 67 85 113 115 0
h 5 32 66 67 116 118 133 144 146 0
h 6 8 12 22 46 49 78 79 86 90 91 95 101 107 0
h 6 8 12 22 46 49 124 126 128 132 142 143 0
h 6 8 12 22 59 68 78 79 86 90 91 95 109 110 0
h 6 8 12 22 59 68 124 126 128 132 0
h 6 8 33 34 35 46 58 78 79 86 96 97 100 101 0
h 6 8 33 34 35 46 58 124 126 136 142 0
h 6 8 33 34 35 59 73 78 79 86 96 97 100 109 110 0
h 6 8 33 34 35 59 73 124 126 136 0
h 6 9 21 22 23 46 77 78 84 86 88 89 90 91 94 95 101 106 107 0
h 6 9 21 22 23 46 126 127 132 0
h 6 9 21 22 23 59 60 68 72 77 78 84 86 88 89 90 91 94 95 110 0
h 6 9 21 22 23 59 60 68 72 126 127 132 144 0
h 6 9 26 34 46 53 77 78 84 86 96 100 101 0
h 6 9 26 34 46 53 126 127 134 136 0
h 6 9 26 34 59 60 73 77 78 84 86 96 100 110 0
h 6 9 26 34 59 60 73 126 127 134 136 144 0
h 7 8 11 12 20 22 36 39 44 46 49 76 79 83 91 95 101 107 0
h 7 8 11 12 20 22 36 39 44 46 49 125 126 128 132 137 142 143 0
h 7 8 11 12 20 22 68 76 79 83 91 95 108 109 0
h 7 8 11 12 20 22 68 125 126 128 132 0
h 7 8 35 36 39 44 46 52 58 76 79 83 97 101 0
h 7 8 35 36 39 44 46 52 58 125 126 136 137 142 0
h 7 8 35 76 79 83 97 108 109 0
h 7 8 35 125 126 136 0
h 9 10 13 23 46 48 84 85 86 87 88 90 94 95 104 105 106 107 0
h 9 10 13 23 46 48 117 127 139 0
h 9 10 13 23 60 66 72 84 85 86 87 88 90 94 95 110 0
h 9 10 13 23 60 66 72 117 127 144 0
h 9 10 32 34 46 84 85 86 87 100 104 0
h 9 10 32 34 46 117 127 133 134 136 139 0
h 9 10 32 34 60 66 73 74 84 85 86 87 100 110 0
h 9 10 32 34 60 66 73 74 117 127 133 134 136 144 0
h 11 12 18 36 39 41 49 76 79 81 91 101 107 0
h 11 12 18 36 39 41 49 128 137 143 0
h 11 12 18 68 76 79 81 91 108 109 112 0
h 11 12 18 68 128 0
h 11 14 15 20 21 47 89 92 94 106 0
h 11 14 15 20 21 47 116 129 130 132 137 0
h 11 14 15 20 21 62 67 68 69 70 72 89 92 94 111 113 0
h 11 14 15 20 21 62 67 68 69 70 72 116 129 130 132 144 147 0
h 11 20 21 22 23 39 46 47 89 91 94 95 101 106 107 0
h 11 20 21 22 23 39 46 47 116 125 126 127 132 137 0
h 11 20 21 22 23 68 72 89 91 94 95 0
h 11 20 21 22 23 68 72 116 125 126 127 132 144 0
h 11 20 36 44 76 83 0
h 11 20 36 44 128 129 130 131 132 137 140 142 143 0
h 11 20 68 69 76 83 108 109 111 113 0
h 11 20 68 69 128 129 130 131 132 147 0
h 12 17 18 49 78 79 81 82 90 91 93 101 107 0
h 12 17 18 49 128 143 0
h 12 17 18 59 63 68 78 79 81 82 90 91 93 109 110 112 0
h 12 17 18 59 63 68 128 0
h 13 16 48 50 88 90 93 105 106 107 0
h 13 16 48 50 117 121 122 139 141 0
h 13 16 60 63 88 90 93 110 0
h 13 16 60 63 117 121 122 144 0
h 14 19 38 42 43 47 50 92 103 106 0
h 14 19 38 42 43 47 50 116 118 122 123 129 137 141 0
h 14 19 69 70 71 92 0
h 14 19 69 70 71 116 118 122 123 129 144 146 147 0
h 15 21 59 60 62 67 68 70 72 77 80 84 88 89 92 94 111 0
h 15 21 59 60 62 67 68 70 72 130 132 144 145 147 0
h 15 21 77 80 84 88 89 92 94 106 0
h 15 21 130 132 0
h 24 25 39 40 51 52 56 79 97 99 0
h 24 25 39 40 51 52 56 133 137 138 139 141 0
h 24 25 74 79 97 99 108 112 114 0
h 24 25 74 133 0
h 24 27 28 32 33 37 45 54 55 58 97 98 100 102 104 0
h 24 27 28 32 33 37 45 54 55 58 119 120 133 138 140 142 0
h 24 27 28 32 33 73 97 98 100 115 0
h 24 27 28 32 33 73 119 120 133 145 146 0
h 24 31 51 52 54 55 56 57 97 0
h 24 31 51 52 54 55 56 57 118 120 123 133 137 138 140 141 0
h 24 31 61 65 97 108 112 0
h 24 31 61 65 118 120 123 133 146 0
h 24 32 33 34 35 37 40 45 46 58 79 86 87 97 100 104 0
h 24 32 33 34 35 37 40 45 46 58 133 136 138 139 142 0
h 24 32 33 34 35 73 74 79 86 87 97 100 110 0
h 24 32 33 34 35 73 74 133 136 0
h 25 30 38 39 42 51 56 99 0
h 25 30 38 39 42 51 56 116 117 122 133 134 135 137 139 141 0
h 25 30 74 75 99 114 0
h 25 30 74 75 116 117 122 133 134 135 144 0
h 26 29 53 77 78 81 96 101 0
h 26 29 53 134 135 0
h 26 29 59 60 63 64 73 75 77 78 81 96 110 114 0
h 26 29 59 60 63 64 73 75 134 135 144 0
h 27 32 54 80 84 85 98 100 102 103 104 0
h 27 32 54 133 0
h 27 32 60 66 67 73 80 84 85 98 100 115 0
h 27 32 60 66 67 73 133 144 145 146 0
h 28 33 55 58 96 97 98 100 0
h 28 33 55 58 119 124 140 142 0
h 28 33 59 73 96 97 98 100 109 111 115 0
h 28 33 59 73 119 124 145 0
h 36 39 41 52 56 76 79 81 97 99 101 0
h 36 39 41 52 56 137 0
h 36 44 52 55 58 76 83 97 0
h 36 44 52 55 58 137 140 142 0
h 37 40 45 46 48 49 79 86 87 90 95 104 105 107 0
h 37 40 45 46 48 49 138 139 142 143 0
h 37 45 102 104 105 0
h 37 45 119 120 131 138 140 142 143 0
h 38 39 42 47 48 50 106 107 0
h 38 39 42 47 48 50 116 117 122 137 139 141 0
h 38 42 43 51 54 56 57 103 0
h 38 42 43 51 54 56 57 116 118 122 123 133 135 137 141 0
h 39 40 48 49 79 107 0
h 39 40 48 49 137 138 139 141 143 0
h 39 46 53 101 0
h 39 46 53 116 125 126 127 134 136 137 0
h 59 60 62 67 73 77 80 84 96 98 100 111 115 0
h 59 60 62 67 73 144 145 0
h 59 60 63 64 68 77 78 81 88 89 90 91 93 110 0
h 59 60 63 64 68 144 0
h 59 63 73 0
h 59 63 73 78 79 81 82 96 97 109 110 112 114 0
h 59 68 109 111 0
h 59 68 119 124 128 130 131 132 145 147 0
h 60 63 73 74 75 110 114 0
h 60 63 73 74 75 117 121 122 133 134 135 144 0
h 60 66 67 70 72 80 84 85 88 92 94 0
h 60 66 67 70 72 144 145 146 147 0
h 61 65 69 71 108 112 0
h 61 65 69 71 118 120 123 129 131 146 147 0
h 62 67 111 113 115 0
h 62 67 116 144 0
h 76 79 81 97 99 108 109 112 114 0
h 76 83 97 108 109 111 113 115 0
h 77 78 81 88 89 90 91 93 101 106 107 0
h 77 80 84 96 98 100 0
h 78 79 81 82 96 97 101 0
h 79 86 87 90 95 110 0
h 79 108 112 0
h 80 84 85 88 92 94 102 103 104 105 106 0
h 116 117 122 144 0
h 116 118 122 123 133 135 144 146 0
h 116 125 126 127 134 136 144 0
h 116 137 0
h 117 121 122 133 134 135 139 141 0
h 118 120 123 129 131 137 138 140 141 143 0
h 119 120 131 145 146 147 0
h 119 124 128 130 131 132 140 142 143 0
1 -1 0
1 -2 0
1 -3 0
1 -4 0
1 -5 0
1 -6 0
1 -7 0
1 -8 0
1 -9 0
1 -10 0
1 -11 0
1 -12 0
1 -13 0
1 -14 0
1 -15 0
1 -16 0
1 -17 0
1 -18 0
1 -19 0
1 -20 0
1 -21 0
1 -22 0
1 -23 0
1 -24 0
1 -25 0
1 -26 0
1 -27 0
1 -28 0
1 -29 0
1 -30 0
1 -31 0
1 -32 0
1 -33 0
1 -34 0
1 -35 0
1 -36 0
1 -37 0
1 -38 0
1 -39 0
1 -40 0
1 -41 0
1 -42 0
1 -43 0
1 -44 0
1 -45 0
1 -46 0
1 -47 0
1 -48 0
1 -49 0
1 -50 0
1 -51 0
1 -52 0
1 -53 0
1 -54 0
1 -55 0
1 -56 0
1 -57 0
1 -58 0
1 -59 0
1 -60 0
1 -61 0
1 -62 0
1 -63 0
1 -64 0
1 -65 0
1 -66 0
1 -67 0
1 -68 0
1 -69 0
1 -70 0
1 -71 0
1 -72 0
1 -73 0
1 -74 0
1 -75 0
1 -76 0
1 -77 0
1 -78 0
1 -79 0
1 -80 0
1 -81 0
1 -82 0
1 -83 0
1 -84 0
1 -85 0
1 -86 0
1 -87 0
1 -88 0
1 -89 0
1 -90 0
1 -91 0
1 -92 0
1 -93 0
1 -94 0
1 -95 0
1 -96 0
1 -97 0
1 -98 0
1 -99 0
1 -100 0
1 -101 0
1 -102 0
1 -103 0
1 -104 0
1 -105 0
1 -106 0
1 -107 0
1 -108 0
1 -109 0
1 -110 0
1 -111 0
1 -112 0
1 -113 0
1 -114 0
1 -115 0
1 -116 0
1 -117 0
1 -118 0
1 -119 0
1 -120 0
1 -121 0
1 -122 0
1 -123 0
1 -124 0
1 -125 0
1 -126 0
1 -127 0
1 -128 0
1 -129 0
1 -130 0
1 -131 0
1 -132 0
1 -133 0
1 -134 0
1 -135 0
1 -136 0
1 -137 0
1 -138 0
1 -139 0
1 -140 0
1 -141 0
1 -142 0
1 -143 0
1 -144 0
1 -145 0
1 -146 0
1 -147 0
